ACTORES = {Actor1, Actor2, Actor3, Actor4, Actor5, Actor6, Actor7, Actor8};
num_escenas = 20;
num_pares = 1;

% Matriz de participación + costo del actor (última columna)
Escenas = [|
    1, 1, 1, 1, 0, 1, 0, 1, 0, 1, 1, 0, 0, 0, 0, 0, 0, 0, 0, 0, 10  % Actor1
  | 1, 1, 1, 0, 0, 0, 1, 1, 0, 1, 0, 0, 1, 1, 1, 0, 1, 0, 0, 1, 4   % Actor2
  | 0, 1, 1, 0, 1, 0, 1, 1, 0, 0, 0, 0, 1, 1, 1, 0, 0, 0, 0, 0, 5   % Actor3
  | 0, 0, 0, 0, 0, 0, 0, 0, 0, 1, 1, 1, 1, 0, 0, 0, 0, 0, 0, 0, 5   % Actor4
  | 0, 1, 0, 0, 0, 0, 1, 1, 0, 0, 0, 1, 0, 1, 0, 0, 0, 1, 1, 1, 5   % Actor5
  | 0, 0, 0, 0, 0, 0, 0, 0, 0, 0, 0, 0, 0, 1, 1, 1, 1, 1, 0, 0, 10  % Actor6
  | 0, 0, 0, 0, 1, 0, 1, 1, 0, 0, 0, 0, 0, 0, 1, 0, 0, 0, 0, 0, 4   % Actor7
  | 0, 0, 0, 0, 0, 1, 1, 1, 1, 0, 0, 0, 0, 0, 0, 0, 0, 0, 0, 0, 20  % Actor8
|];

% Duración de las escenas
duracion = [2, 1, 1, 1, 1, 3, 1, 1, 1, 2, 1, 1, 2, 1, 2, 1, 1, 2, 1, 1];

% Disponibilidad directa (en lugar de tabla)
disponibilidad = [0, 0, 23, 0, 80, 10, 5, 100];

% Pares de actores a evitar en simultáneo
evitar_pares = 
    array2d(1..num_pares, 1..2, [
        Actor1, Actor2,
    ]);


